(declare-fun X0 () Int)
(declare-fun X1 () Int)
(declare-fun X2 () Int)
(declare-fun X3 () Int)
(declare-fun X4 () Int)
(declare-fun X5 () Int)
(declare-fun X6 () Int)
(declare-fun X7 () Int)
(declare-fun X8 () Int)
(declare-fun X9 () Int)
(declare-fun X10 () Int)
(declare-fun X11 () Int)
(declare-fun X12 () Int)
(declare-fun X13 () Int)
(declare-fun X14 () Int)
(assert (<= (- X1 X9) 5))
(assert (>= (- X1 X9) 0))
(assert (<= (- X2 X14) 5))
(assert (>= (- X2 X14) 0))
(assert (<= (- X3 X10) 5))
(assert (>= (- X3 X10) 0))
(assert (<= (- X4 X11) 5))
(assert (>= (- X4 X11) 0))
(assert (<= (- X5 X9) 5))
(assert (>= (- X5 X9) 0))
(assert (<= (- X6 X9) 5))
(assert (>= (- X6 X9) 0))
(assert (<= (- X7 X1) 5))
(assert (>= (- X7 X1) 0))
(assert (<= (- X8 X0) 5))
(assert (>= (- X8 X0) 0))
(assert (<= (- X9 X6) 5))
(assert (>= (- X9 X6) 0))
(assert (<= (- X10 X1) 5))
(assert (>= (- X10 X1) 0))
(assert (<= (- X11 X13) 5))
(assert (>= (- X11 X13) 0))
(assert (<= (- X12 X11) 5))
(assert (>= (- X12 X11) 0))
(assert (<= (- X13 X2) 5))
(assert (>= (- X13 X2) 0))
(assert (<= (- X14 X1) 5))
(assert (>= (- X14 X1) 0))
(check-sat)
